(set-option :produce-models true)
(set-logic QF_LRA)
(set-info :notes | Strip-packing problem.|)
(declare-fun x0 () Real)
(declare-fun y0 () Real)
(declare-fun x1 () Real)
(declare-fun y1 () Real)
(declare-fun x2 () Real)
(declare-fun y2 () Real)
(declare-fun x3 () Real)
(declare-fun y3 () Real)
(declare-fun x4 () Real)
(declare-fun y4 () Real)
(declare-fun x5 () Real)
(declare-fun y5 () Real)
(declare-fun x6 () Real)
(declare-fun y6 () Real)
(declare-fun x7 () Real)
(declare-fun y7 () Real)
(declare-fun x8 () Real)
(declare-fun y8 () Real)
(declare-fun x9 () Real)
(declare-fun y9 () Real)
(declare-fun x10 () Real)
(declare-fun y10 () Real)
(declare-fun x11 () Real)
(declare-fun y11 () Real)
(declare-fun x12 () Real)
(declare-fun y12 () Real)
(declare-fun x13 () Real)
(declare-fun y13 () Real)
(declare-fun x14 () Real)
(declare-fun y14 () Real)
(declare-fun z () Real)
(declare-fun c () Real)
(assert (and (= c z) (and (>= x0 0) 
(and (>= y0 0) 
(and (>= x1 0) 
(and (>= y1 0) 
(and (>= x2 0) 
(and (>= y2 0) 
(and (>= x3 0) 
(and (>= y3 0) 
(and (>= x4 0) 
(and (>= y4 0) 
(and (>= x5 0) 
(and (>= y5 0) 
(and (>= x6 0) 
(and (>= y6 0) 
(and (>= x7 0) 
(and (>= y7 0) 
(and (>= x8 0) 
(and (>= y8 0) 
(and (>= x9 0) 
(and (>= y9 0) 
(and (>= x10 0) 
(and (>= y10 0) 
(and (>= x11 0) 
(and (>= y11 0) 
(and (>= x12 0) 
(and (>= y12 0) 
(and (>= x13 0) 
(and (>= y13 0) 
(and (>= x14 0) 
(and (>= y14 0) 
(and (>= z 0) 
(and (>= c 0) 
(and (<= (+ x0 0.4887148901) z) 
(and (<= 0.9503260055 y0) 
(and (<= y0 1.9364916731) 
(and (<= x0 (- 3.5549210012 0.4887148901)) 
(and (>= x0 0) 
(and (<= (+ x1 0.7512542402) z) 
(and (<= 0.8620120056 y1) 
(and (<= y1 1.9364916731) 
(and (<= x1 (- 3.5549210012 0.7512542402)) 
(and (>= x1 0) 
(and (<= (+ x2 0.2275408033) z) 
(and (<= 0.7316266398 y2) 
(and (<= y2 1.9364916731) 
(and (<= x2 (- 3.5549210012 0.2275408033)) 
(and (>= x2 0) 
(and (<= (+ x3 0.5767542666) z) 
(and (<= 0.623939169 y3) 
(and (<= y3 1.9364916731) 
(and (<= x3 (- 3.5549210012 0.5767542666)) 
(and (>= x3 0) 
(and (<= (+ x4 0.4266433316) z) 
(and (<= 0.5999206973 y4) 
(and (<= y4 1.9364916731) 
(and (<= x4 (- 3.5549210012 0.4266433316)) 
(and (>= x4 0) 
(and (<= (+ x5 0.9331160237) z) 
(and (<= 0.5867571836 y5) 
(and (<= y5 1.9364916731) 
(and (<= x5 (- 3.5549210012 0.9331160237)) 
(and (>= x5 0) 
(and (<= (+ x6 0.3695562814) z) 
(and (<= 0.4957208617 y6) 
(and (<= y6 1.9364916731) 
(and (<= x6 (- 3.5549210012 0.3695562814)) 
(and (>= x6 0) 
(and (<= (+ x7 0.1442017861) z) 
(and (<= 0.3974427709 y7) 
(and (<= y7 1.9364916731) 
(and (<= x7 (- 3.5549210012 0.1442017861)) 
(and (>= x7 0) 
(and (<= (+ x8 0.379713222) z) 
(and (<= 0.33874197 y8) 
(and (<= y8 1.9364916731) 
(and (<= x8 (- 3.5549210012 0.379713222)) 
(and (>= x8 0) 
(and (<= (+ x9 0.8456502523) z) 
(and (<= 0.2662551102 y9) 
(and (<= y9 1.9364916731) 
(and (<= x9 (- 3.5549210012 0.8456502523)) 
(and (>= x9 0) 
(and (<= (+ x10 0.9551925156) z) 
(and (<= 0.2640656138 y10) 
(and (<= y10 1.9364916731) 
(and (<= x10 (- 3.5549210012 0.9551925156)) 
(and (>= x10 0) 
(and (<= (+ x11 0.8894952661) z) 
(and (<= 0.2478885386 y11) 
(and (<= y11 1.9364916731) 
(and (<= x11 (- 3.5549210012 0.8894952661)) 
(and (>= x11 0) 
(and (<= (+ x12 0.79374143) z) 
(and (<= 0.2296471081 y12) 
(and (<= y12 1.9364916731) 
(and (<= x12 (- 3.5549210012 0.79374143)) 
(and (>= x12 0) 
(and (<= (+ x13 0.3120989312) z) 
(and (<= 0.0898852973 y13) 
(and (<= y13 1.9364916731) 
(and (<= x13 (- 3.5549210012 0.3120989312)) 
(and (>= x13 0) 
(and (<= (+ x14 0.6014402661) z) 
(and (<= 0.0538824602 y14) 
(and (<= y14 1.9364916731) 
(and (<= x14 (- 3.5549210012 0.6014402661)) 
(and (>= x14 0) 
(and (<= c 3.5549210012) 
(and (or (<= (+ x0 0.4887148901) x1) (or (<= (+ x1 0.7512542402) x0) (or (>= (- y0 0.9503260055) y1) (or (>= (- y1 0.8620120056) y0))))) 
(and (or (<= (+ x0 0.4887148901) x2) (or (<= (+ x2 0.2275408033) x0) (or (>= (- y0 0.9503260055) y2) (or (>= (- y2 0.7316266398) y0))))) 
(and (or (<= (+ x0 0.4887148901) x3) (or (<= (+ x3 0.5767542666) x0) (or (>= (- y0 0.9503260055) y3) (or (>= (- y3 0.623939169) y0))))) 
(and (or (<= (+ x0 0.4887148901) x4) (or (<= (+ x4 0.4266433316) x0) (or (>= (- y0 0.9503260055) y4) (or (>= (- y4 0.5999206973) y0))))) 
(and (or (<= (+ x0 0.4887148901) x5) (or (<= (+ x5 0.9331160237) x0) (or (>= (- y0 0.9503260055) y5) (or (>= (- y5 0.5867571836) y0))))) 
(and (or (<= (+ x0 0.4887148901) x6) (or (<= (+ x6 0.3695562814) x0) (or (>= (- y0 0.9503260055) y6) (or (>= (- y6 0.4957208617) y0))))) 
(and (or (<= (+ x0 0.4887148901) x7) (or (<= (+ x7 0.1442017861) x0) (or (>= (- y0 0.9503260055) y7) (or (>= (- y7 0.3974427709) y0))))) 
(and (or (<= (+ x0 0.4887148901) x8) (or (<= (+ x8 0.379713222) x0) (or (>= (- y0 0.9503260055) y8) (or (>= (- y8 0.33874197) y0))))) 
(and (or (<= (+ x0 0.4887148901) x9) (or (<= (+ x9 0.8456502523) x0) (or (>= (- y0 0.9503260055) y9) (or (>= (- y9 0.2662551102) y0))))) 
(and (or (<= (+ x0 0.4887148901) x10) (or (<= (+ x10 0.9551925156) x0) (or (>= (- y0 0.9503260055) y10) (or (>= (- y10 0.2640656138) y0))))) 
(and (or (<= (+ x0 0.4887148901) x11) (or (<= (+ x11 0.8894952661) x0) (or (>= (- y0 0.9503260055) y11) (or (>= (- y11 0.2478885386) y0))))) 
(and (or (<= (+ x0 0.4887148901) x12) (or (<= (+ x12 0.79374143) x0) (or (>= (- y0 0.9503260055) y12) (or (>= (- y12 0.2296471081) y0))))) 
(and (or (<= (+ x0 0.4887148901) x13) (or (<= (+ x13 0.3120989312) x0) (or (>= (- y0 0.9503260055) y13) (or (>= (- y13 0.0898852973) y0))))) 
(and (or (<= (+ x0 0.4887148901) x14) (or (<= (+ x14 0.6014402661) x0) (or (>= (- y0 0.9503260055) y14) (or (>= (- y14 0.0538824602) y0))))) 
(and (or (<= (+ x1 0.7512542402) x2) (or (<= (+ x2 0.2275408033) x1) (or (>= (- y1 0.8620120056) y2) (or (>= (- y2 0.7316266398) y1))))) 
(and (or (<= (+ x1 0.7512542402) x3) (or (<= (+ x3 0.5767542666) x1) (or (>= (- y1 0.8620120056) y3) (or (>= (- y3 0.623939169) y1))))) 
(and (or (<= (+ x1 0.7512542402) x4) (or (<= (+ x4 0.4266433316) x1) (or (>= (- y1 0.8620120056) y4) (or (>= (- y4 0.5999206973) y1))))) 
(and (or (<= (+ x1 0.7512542402) x5) (or (<= (+ x5 0.9331160237) x1) (or (>= (- y1 0.8620120056) y5) (or (>= (- y5 0.5867571836) y1))))) 
(and (or (<= (+ x1 0.7512542402) x6) (or (<= (+ x6 0.3695562814) x1) (or (>= (- y1 0.8620120056) y6) (or (>= (- y6 0.4957208617) y1))))) 
(and (or (<= (+ x1 0.7512542402) x7) (or (<= (+ x7 0.1442017861) x1) (or (>= (- y1 0.8620120056) y7) (or (>= (- y7 0.3974427709) y1))))) 
(and (or (<= (+ x1 0.7512542402) x8) (or (<= (+ x8 0.379713222) x1) (or (>= (- y1 0.8620120056) y8) (or (>= (- y8 0.33874197) y1))))) 
(and (or (<= (+ x1 0.7512542402) x9) (or (<= (+ x9 0.8456502523) x1) (or (>= (- y1 0.8620120056) y9) (or (>= (- y9 0.2662551102) y1))))) 
(and (or (<= (+ x1 0.7512542402) x10) (or (<= (+ x10 0.9551925156) x1) (or (>= (- y1 0.8620120056) y10) (or (>= (- y10 0.2640656138) y1))))) 
(and (or (<= (+ x1 0.7512542402) x11) (or (<= (+ x11 0.8894952661) x1) (or (>= (- y1 0.8620120056) y11) (or (>= (- y11 0.2478885386) y1))))) 
(and (or (<= (+ x1 0.7512542402) x12) (or (<= (+ x12 0.79374143) x1) (or (>= (- y1 0.8620120056) y12) (or (>= (- y12 0.2296471081) y1))))) 
(and (or (<= (+ x1 0.7512542402) x13) (or (<= (+ x13 0.3120989312) x1) (or (>= (- y1 0.8620120056) y13) (or (>= (- y13 0.0898852973) y1))))) 
(and (or (<= (+ x1 0.7512542402) x14) (or (<= (+ x14 0.6014402661) x1) (or (>= (- y1 0.8620120056) y14) (or (>= (- y14 0.0538824602) y1))))) 
(and (or (<= (+ x2 0.2275408033) x3) (or (<= (+ x3 0.5767542666) x2) (or (>= (- y2 0.7316266398) y3) (or (>= (- y3 0.623939169) y2))))) 
(and (or (<= (+ x2 0.2275408033) x4) (or (<= (+ x4 0.4266433316) x2) (or (>= (- y2 0.7316266398) y4) (or (>= (- y4 0.5999206973) y2))))) 
(and (or (<= (+ x2 0.2275408033) x5) (or (<= (+ x5 0.9331160237) x2) (or (>= (- y2 0.7316266398) y5) (or (>= (- y5 0.5867571836) y2))))) 
(and (or (<= (+ x2 0.2275408033) x6) (or (<= (+ x6 0.3695562814) x2) (or (>= (- y2 0.7316266398) y6) (or (>= (- y6 0.4957208617) y2))))) 
(and (or (<= (+ x2 0.2275408033) x7) (or (<= (+ x7 0.1442017861) x2) (or (>= (- y2 0.7316266398) y7) (or (>= (- y7 0.3974427709) y2))))) 
(and (or (<= (+ x2 0.2275408033) x8) (or (<= (+ x8 0.379713222) x2) (or (>= (- y2 0.7316266398) y8) (or (>= (- y8 0.33874197) y2))))) 
(and (or (<= (+ x2 0.2275408033) x9) (or (<= (+ x9 0.8456502523) x2) (or (>= (- y2 0.7316266398) y9) (or (>= (- y9 0.2662551102) y2))))) 
(and (or (<= (+ x2 0.2275408033) x10) (or (<= (+ x10 0.9551925156) x2) (or (>= (- y2 0.7316266398) y10) (or (>= (- y10 0.2640656138) y2))))) 
(and (or (<= (+ x2 0.2275408033) x11) (or (<= (+ x11 0.8894952661) x2) (or (>= (- y2 0.7316266398) y11) (or (>= (- y11 0.2478885386) y2))))) 
(and (or (<= (+ x2 0.2275408033) x12) (or (<= (+ x12 0.79374143) x2) (or (>= (- y2 0.7316266398) y12) (or (>= (- y12 0.2296471081) y2))))) 
(and (or (<= (+ x2 0.2275408033) x13) (or (<= (+ x13 0.3120989312) x2) (or (>= (- y2 0.7316266398) y13) (or (>= (- y13 0.0898852973) y2))))) 
(and (or (<= (+ x2 0.2275408033) x14) (or (<= (+ x14 0.6014402661) x2) (or (>= (- y2 0.7316266398) y14) (or (>= (- y14 0.0538824602) y2))))) 
(and (or (<= (+ x3 0.5767542666) x4) (or (<= (+ x4 0.4266433316) x3) (or (>= (- y3 0.623939169) y4) (or (>= (- y4 0.5999206973) y3))))) 
(and (or (<= (+ x3 0.5767542666) x5) (or (<= (+ x5 0.9331160237) x3) (or (>= (- y3 0.623939169) y5) (or (>= (- y5 0.5867571836) y3))))) 
(and (or (<= (+ x3 0.5767542666) x6) (or (<= (+ x6 0.3695562814) x3) (or (>= (- y3 0.623939169) y6) (or (>= (- y6 0.4957208617) y3))))) 
(and (or (<= (+ x3 0.5767542666) x7) (or (<= (+ x7 0.1442017861) x3) (or (>= (- y3 0.623939169) y7) (or (>= (- y7 0.3974427709) y3))))) 
(and (or (<= (+ x3 0.5767542666) x8) (or (<= (+ x8 0.379713222) x3) (or (>= (- y3 0.623939169) y8) (or (>= (- y8 0.33874197) y3))))) 
(and (or (<= (+ x3 0.5767542666) x9) (or (<= (+ x9 0.8456502523) x3) (or (>= (- y3 0.623939169) y9) (or (>= (- y9 0.2662551102) y3))))) 
(and (or (<= (+ x3 0.5767542666) x10) (or (<= (+ x10 0.9551925156) x3) (or (>= (- y3 0.623939169) y10) (or (>= (- y10 0.2640656138) y3))))) 
(and (or (<= (+ x3 0.5767542666) x11) (or (<= (+ x11 0.8894952661) x3) (or (>= (- y3 0.623939169) y11) (or (>= (- y11 0.2478885386) y3))))) 
(and (or (<= (+ x3 0.5767542666) x12) (or (<= (+ x12 0.79374143) x3) (or (>= (- y3 0.623939169) y12) (or (>= (- y12 0.2296471081) y3))))) 
(and (or (<= (+ x3 0.5767542666) x13) (or (<= (+ x13 0.3120989312) x3) (or (>= (- y3 0.623939169) y13) (or (>= (- y13 0.0898852973) y3))))) 
(and (or (<= (+ x3 0.5767542666) x14) (or (<= (+ x14 0.6014402661) x3) (or (>= (- y3 0.623939169) y14) (or (>= (- y14 0.0538824602) y3))))) 
(and (or (<= (+ x4 0.4266433316) x5) (or (<= (+ x5 0.9331160237) x4) (or (>= (- y4 0.5999206973) y5) (or (>= (- y5 0.5867571836) y4))))) 
(and (or (<= (+ x4 0.4266433316) x6) (or (<= (+ x6 0.3695562814) x4) (or (>= (- y4 0.5999206973) y6) (or (>= (- y6 0.4957208617) y4))))) 
(and (or (<= (+ x4 0.4266433316) x7) (or (<= (+ x7 0.1442017861) x4) (or (>= (- y4 0.5999206973) y7) (or (>= (- y7 0.3974427709) y4))))) 
(and (or (<= (+ x4 0.4266433316) x8) (or (<= (+ x8 0.379713222) x4) (or (>= (- y4 0.5999206973) y8) (or (>= (- y8 0.33874197) y4))))) 
(and (or (<= (+ x4 0.4266433316) x9) (or (<= (+ x9 0.8456502523) x4) (or (>= (- y4 0.5999206973) y9) (or (>= (- y9 0.2662551102) y4))))) 
(and (or (<= (+ x4 0.4266433316) x10) (or (<= (+ x10 0.9551925156) x4) (or (>= (- y4 0.5999206973) y10) (or (>= (- y10 0.2640656138) y4))))) 
(and (or (<= (+ x4 0.4266433316) x11) (or (<= (+ x11 0.8894952661) x4) (or (>= (- y4 0.5999206973) y11) (or (>= (- y11 0.2478885386) y4))))) 
(and (or (<= (+ x4 0.4266433316) x12) (or (<= (+ x12 0.79374143) x4) (or (>= (- y4 0.5999206973) y12) (or (>= (- y12 0.2296471081) y4))))) 
(and (or (<= (+ x4 0.4266433316) x13) (or (<= (+ x13 0.3120989312) x4) (or (>= (- y4 0.5999206973) y13) (or (>= (- y13 0.0898852973) y4))))) 
(and (or (<= (+ x4 0.4266433316) x14) (or (<= (+ x14 0.6014402661) x4) (or (>= (- y4 0.5999206973) y14) (or (>= (- y14 0.0538824602) y4))))) 
(and (or (<= (+ x5 0.9331160237) x6) (or (<= (+ x6 0.3695562814) x5) (or (>= (- y5 0.5867571836) y6) (or (>= (- y6 0.4957208617) y5))))) 
(and (or (<= (+ x5 0.9331160237) x7) (or (<= (+ x7 0.1442017861) x5) (or (>= (- y5 0.5867571836) y7) (or (>= (- y7 0.3974427709) y5))))) 
(and (or (<= (+ x5 0.9331160237) x8) (or (<= (+ x8 0.379713222) x5) (or (>= (- y5 0.5867571836) y8) (or (>= (- y8 0.33874197) y5))))) 
(and (or (<= (+ x5 0.9331160237) x9) (or (<= (+ x9 0.8456502523) x5) (or (>= (- y5 0.5867571836) y9) (or (>= (- y9 0.2662551102) y5))))) 
(and (or (<= (+ x5 0.9331160237) x10) (or (<= (+ x10 0.9551925156) x5) (or (>= (- y5 0.5867571836) y10) (or (>= (- y10 0.2640656138) y5))))) 
(and (or (<= (+ x5 0.9331160237) x11) (or (<= (+ x11 0.8894952661) x5) (or (>= (- y5 0.5867571836) y11) (or (>= (- y11 0.2478885386) y5))))) 
(and (or (<= (+ x5 0.9331160237) x12) (or (<= (+ x12 0.79374143) x5) (or (>= (- y5 0.5867571836) y12) (or (>= (- y12 0.2296471081) y5))))) 
(and (or (<= (+ x5 0.9331160237) x13) (or (<= (+ x13 0.3120989312) x5) (or (>= (- y5 0.5867571836) y13) (or (>= (- y13 0.0898852973) y5))))) 
(and (or (<= (+ x5 0.9331160237) x14) (or (<= (+ x14 0.6014402661) x5) (or (>= (- y5 0.5867571836) y14) (or (>= (- y14 0.0538824602) y5))))) 
(and (or (<= (+ x6 0.3695562814) x7) (or (<= (+ x7 0.1442017861) x6) (or (>= (- y6 0.4957208617) y7) (or (>= (- y7 0.3974427709) y6))))) 
(and (or (<= (+ x6 0.3695562814) x8) (or (<= (+ x8 0.379713222) x6) (or (>= (- y6 0.4957208617) y8) (or (>= (- y8 0.33874197) y6))))) 
(and (or (<= (+ x6 0.3695562814) x9) (or (<= (+ x9 0.8456502523) x6) (or (>= (- y6 0.4957208617) y9) (or (>= (- y9 0.2662551102) y6))))) 
(and (or (<= (+ x6 0.3695562814) x10) (or (<= (+ x10 0.9551925156) x6) (or (>= (- y6 0.4957208617) y10) (or (>= (- y10 0.2640656138) y6))))) 
(and (or (<= (+ x6 0.3695562814) x11) (or (<= (+ x11 0.8894952661) x6) (or (>= (- y6 0.4957208617) y11) (or (>= (- y11 0.2478885386) y6))))) 
(and (or (<= (+ x6 0.3695562814) x12) (or (<= (+ x12 0.79374143) x6) (or (>= (- y6 0.4957208617) y12) (or (>= (- y12 0.2296471081) y6))))) 
(and (or (<= (+ x6 0.3695562814) x13) (or (<= (+ x13 0.3120989312) x6) (or (>= (- y6 0.4957208617) y13) (or (>= (- y13 0.0898852973) y6))))) 
(and (or (<= (+ x6 0.3695562814) x14) (or (<= (+ x14 0.6014402661) x6) (or (>= (- y6 0.4957208617) y14) (or (>= (- y14 0.0538824602) y6))))) 
(and (or (<= (+ x7 0.1442017861) x8) (or (<= (+ x8 0.379713222) x7) (or (>= (- y7 0.3974427709) y8) (or (>= (- y8 0.33874197) y7))))) 
(and (or (<= (+ x7 0.1442017861) x9) (or (<= (+ x9 0.8456502523) x7) (or (>= (- y7 0.3974427709) y9) (or (>= (- y9 0.2662551102) y7))))) 
(and (or (<= (+ x7 0.1442017861) x10) (or (<= (+ x10 0.9551925156) x7) (or (>= (- y7 0.3974427709) y10) (or (>= (- y10 0.2640656138) y7))))) 
(and (or (<= (+ x7 0.1442017861) x11) (or (<= (+ x11 0.8894952661) x7) (or (>= (- y7 0.3974427709) y11) (or (>= (- y11 0.2478885386) y7))))) 
(and (or (<= (+ x7 0.1442017861) x12) (or (<= (+ x12 0.79374143) x7) (or (>= (- y7 0.3974427709) y12) (or (>= (- y12 0.2296471081) y7))))) 
(and (or (<= (+ x7 0.1442017861) x13) (or (<= (+ x13 0.3120989312) x7) (or (>= (- y7 0.3974427709) y13) (or (>= (- y13 0.0898852973) y7))))) 
(and (or (<= (+ x7 0.1442017861) x14) (or (<= (+ x14 0.6014402661) x7) (or (>= (- y7 0.3974427709) y14) (or (>= (- y14 0.0538824602) y7))))) 
(and (or (<= (+ x8 0.379713222) x9) (or (<= (+ x9 0.8456502523) x8) (or (>= (- y8 0.33874197) y9) (or (>= (- y9 0.2662551102) y8))))) 
(and (or (<= (+ x8 0.379713222) x10) (or (<= (+ x10 0.9551925156) x8) (or (>= (- y8 0.33874197) y10) (or (>= (- y10 0.2640656138) y8))))) 
(and (or (<= (+ x8 0.379713222) x11) (or (<= (+ x11 0.8894952661) x8) (or (>= (- y8 0.33874197) y11) (or (>= (- y11 0.2478885386) y8))))) 
(and (or (<= (+ x8 0.379713222) x12) (or (<= (+ x12 0.79374143) x8) (or (>= (- y8 0.33874197) y12) (or (>= (- y12 0.2296471081) y8))))) 
(and (or (<= (+ x8 0.379713222) x13) (or (<= (+ x13 0.3120989312) x8) (or (>= (- y8 0.33874197) y13) (or (>= (- y13 0.0898852973) y8))))) 
(and (or (<= (+ x8 0.379713222) x14) (or (<= (+ x14 0.6014402661) x8) (or (>= (- y8 0.33874197) y14) (or (>= (- y14 0.0538824602) y8))))) 
(and (or (<= (+ x9 0.8456502523) x10) (or (<= (+ x10 0.9551925156) x9) (or (>= (- y9 0.2662551102) y10) (or (>= (- y10 0.2640656138) y9))))) 
(and (or (<= (+ x9 0.8456502523) x11) (or (<= (+ x11 0.8894952661) x9) (or (>= (- y9 0.2662551102) y11) (or (>= (- y11 0.2478885386) y9))))) 
(and (or (<= (+ x9 0.8456502523) x12) (or (<= (+ x12 0.79374143) x9) (or (>= (- y9 0.2662551102) y12) (or (>= (- y12 0.2296471081) y9))))) 
(and (or (<= (+ x9 0.8456502523) x13) (or (<= (+ x13 0.3120989312) x9) (or (>= (- y9 0.2662551102) y13) (or (>= (- y13 0.0898852973) y9))))) 
(and (or (<= (+ x9 0.8456502523) x14) (or (<= (+ x14 0.6014402661) x9) (or (>= (- y9 0.2662551102) y14) (or (>= (- y14 0.0538824602) y9))))) 
(and (or (<= (+ x10 0.9551925156) x11) (or (<= (+ x11 0.8894952661) x10) (or (>= (- y10 0.2640656138) y11) (or (>= (- y11 0.2478885386) y10))))) 
(and (or (<= (+ x10 0.9551925156) x12) (or (<= (+ x12 0.79374143) x10) (or (>= (- y10 0.2640656138) y12) (or (>= (- y12 0.2296471081) y10))))) 
(and (or (<= (+ x10 0.9551925156) x13) (or (<= (+ x13 0.3120989312) x10) (or (>= (- y10 0.2640656138) y13) (or (>= (- y13 0.0898852973) y10))))) 
(and (or (<= (+ x10 0.9551925156) x14) (or (<= (+ x14 0.6014402661) x10) (or (>= (- y10 0.2640656138) y14) (or (>= (- y14 0.0538824602) y10))))) 
(and (or (<= (+ x11 0.8894952661) x12) (or (<= (+ x12 0.79374143) x11) (or (>= (- y11 0.2478885386) y12) (or (>= (- y12 0.2296471081) y11))))) 
(and (or (<= (+ x11 0.8894952661) x13) (or (<= (+ x13 0.3120989312) x11) (or (>= (- y11 0.2478885386) y13) (or (>= (- y13 0.0898852973) y11))))) 
(and (or (<= (+ x11 0.8894952661) x14) (or (<= (+ x14 0.6014402661) x11) (or (>= (- y11 0.2478885386) y14) (or (>= (- y14 0.0538824602) y11))))) 
(and (or (<= (+ x12 0.79374143) x13) (or (<= (+ x13 0.3120989312) x12) (or (>= (- y12 0.2296471081) y13) (or (>= (- y13 0.0898852973) y12))))) 
(and (or (<= (+ x12 0.79374143) x14) (or (<= (+ x14 0.6014402661) x12) (or (>= (- y12 0.2296471081) y14) (or (>= (- y14 0.0538824602) y12))))) 
(and (or (<= (+ x13 0.3120989312) x14) (or (<= (+ x14 0.6014402661) x13) (or (>= (- y13 0.0898852973) y14) (or (>= (- y14 0.0538824602) y13))))) )))))))))))))))))))))))))))))))))))))))))))))))))))))))))))))))))))))))))))))))))))))))))))))))))))))))))))))))))))))))))))))))))))))))))))))))))))))))))))))))))))))))))))))))))))))))))))))))))))))))))))))))))))))))
(minimize c)
(check-sat)
(get-objectives)
(exit)
